\* metodo2 *\
Maximize
Total_de_calorias: 450.01 Alim_Milanesa
Subject To
Limite_inferior_de_proteinas: 36.05 Alim_Milanesa >= 99.058875
_C1: 450.01 Alim_Milanesa <= 972.716504209
_C2: 450.01 Alim_Milanesa <= 924.080678999
End
